(set-info :source |printed by MathSAT|)
(declare-fun ldv_module_refcounter () (_ BitVec 32))

*:
(assert (let ((.def_27269 (= ldv_module_refcounter (_ bv1 32)))).def_27269))
(assert (let ((.def_27274 (bvslt (_ bv1 32) ldv_module_refcounter))).def_27274))

